30	100	100	100
88	53	96
68	52	63
97	65	75
94	62	75
97	84	63
87	97	72
66	53	99
51	66	87
89	78	64
83	91	70
84	79	76
70	61	90
63	71	67
66	58	58
79	55	91
99	58	92
88	57	51
93	64	94
95	80	92
88	69	67
90	80	55
73	71	98
61	56	62
94	82	92
75	79	74
64	68	65
86	88	68
85	51	75
59	75	97
78	70	63
